Traveling Salesman Problem/TSP_generados/Aleatorio1620390957_10.tsp
NAME: Aleatorio1620390957_10.tsp
COMMENT: Randomly generated scenario
TYPE: TSP
DIMENSION: 10
EDGE_WEIGHT_TYPE: ATT
NODE_COORD_SECTION
1 19.1 32.14
2 33.2 6.57
3 42.28 8.99
4 3.48 1.63
5 45.27 37.74
6 26.7 35.94
7 44.84 16.48
8 6.53 36.48
9 35.23 45.97
10 27.03 34.3
