Traveling Salesman Problem/TSP_generados/Aleatorio1620390957_10.opt.tour
NAME: Aleatorio1620390957_10.opt.tour
COMMENT: Optimal solution for Aleatorio1620390957_10 (153.02638412224775)
TYPE: TOUR
DIMENSION: 10
TOUR_SECTION
1 8 4 2 3 7 5 9 6 10
-1
EOF
